p cnf 339 943
e 104 105 107 108 110 111 113 114 116 117 119 120 122 123 125 126 128 129 131 132 134 135 137 138 140 141 143 144 146 147 149 150 152 153 155 156 158 159 160 161 162 163 164 165 166 167 168 169 170 171 172 173 174 175 176 177 178 179 180 181 182 183 184 185 186 187 188 189 190 191 192 193 194 195 196 197 198 199 200 201 202 203 204 205 206 207 208 209 210 211 212 213 214 215 216 217 218 219 220 221 222 223 224 225 226 227 228 229 230 231 232 233 234 235 236 237 238 239 240 241 242 243 244 245 246 247 248 249 250 251 252 253 254 255 256 257 258 259 260 261 262 263 264 265 266 267 268 269 270 271 272 273 274 275 276 277 278 279 280 281 282 283 284 285 286 287 288 289 290 291 292 293 294 295 296 297 298 299 300 301 302 303 304 305 306 307 308 309 310 311 312 313 314 315 316 317 318 319 320 321 322 323 324 325 326 327 328 329 330 331 332 333 334 335 336 337 338 339 0
a 106 109 112 115 118 121 124 127 130 133 136 139 142 145 148 151 154 157 0
e 1 2 3 4 5 6 7 8 9 10 11 12 13 14 15 16 17 18 19 20 21 22 23 24 25 26 27 28 29 30 31 32 33 34 35 36 37 38 39 40 41 42 43 44 45 46 47 48 49 50 51 52 53 54 55 56 57 58 59 60 61 62 63 64 65 66 67 68 69 70 71 72 73 74 75 76 77 78 79 80 81 82 83 84 85 86 87 88 90 91 92 95 96 100 101 102 103 0
1 0
-6 -27 0
-7 -28 0
4 -27 0
5 -28 0
6 27 -4 0
7 28 -5 0
29 -4 0
16 29 0
14 29 0
13 29 0
4 -16 -14 -13 -29 0
-4 -30 0
16 -30 0
4 30 -16 0
31 -14 0
32 -15 0
31 -16 0
32 -17 0
31 -4 0
32 -5 0
6 31 0
7 32 0
14 16 4 -6 -31 0
15 17 5 -7 -32 0
-6 -33 0
-7 -34 0
4 -33 0
5 -34 0
6 33 -4 0
7 34 -5 0
35 -6 0
4 35 0
16 35 0
14 35 0
6 -4 -16 -14 -35 0
6 36 0
36 -4 0
4 -6 -36 0
9 37 0
37 -8 0
37 -3 0
2 37 0
8 3 -9 -2 -37 0
2 -38 0
-3 -38 0
-8 -38 0
9 -38 0
3 8 38 -2 -9 0
9 -39 0
-8 -39 0
-3 -39 0
2 -39 0
8 3 39 -9 -2 0
2 40 0
40 -3 0
40 -8 0
9 40 0
3 8 -2 -9 -40 0
41 -11 0
10 41 0
11 -10 -41 0
13 42 0
42 -12 0
42 -11 0
10 42 0
12 11 -13 -10 -42 0
43 -12 0
43 -11 0
10 43 0
12 11 -10 -43 0
14 -44 0
13 -44 0
-12 -44 0
12 44 -14 -13 0
14 -45 0
13 -45 0
45 -14 -13 0
16 46 0
17 47 0
6 46 0
7 47 0
46 -20 0
47 -21 0
20 -16 -6 -46 0
21 -17 -7 -47 0
14 48 0
15 49 0
16 48 0
17 49 0
48 -6 0
49 -7 0
6 -14 -16 -48 0
7 -15 -17 -49 0
50 -16 0
14 50 0
13 50 0
50 -12 0
16 12 -14 -13 -50 0
4 -51 0
-16 -51 0
16 51 -4 0
-20 -52 0
-21 -53 0
4 -52 0
5 -53 0
20 52 -4 0
21 53 -5 0
54 -16 0
55 -17 0
54 -14 0
55 -15 0
22 54 0
23 55 0
27 54 0
28 55 0
16 14 -22 -27 -54 0
17 15 -23 -28 -55 0
-16 -56 0
-17 -57 0
14 -56 0
15 -57 0
-22 -56 0
-23 -57 0
27 -56 0
28 -57 0
16 22 56 -14 -27 0
17 23 57 -15 -28 0
-16 -58 0
14 -58 0
-22 -58 0
27 -58 0
16 22 58 -14 -27 0
-14 -59 0
-24 -59 0
37 -59 0
14 24 59 -37 0
-24 -60 0
37 -60 0
24 60 -37 0
-24 -61 0
37 -61 0
24 61 -37 0
-24 -62 0
37 -62 0
24 62 -37 0
-38 -63 0
-24 -63 0
38 24 63 0
64 -24 0
64 -39 0
24 39 -64 0
40 65 0
65 -24 0
24 -40 -65 0
-14 -66 0
42 -66 0
14 66 -42 0
67 -12 0
67 -11 0
10 67 0
45 67 0
12 11 -10 -45 -67 0
26 -68 0
22 -68 0
68 -26 -22 0
-18 -69 0
-19 -70 0
54 -69 0
55 -70 0
18 69 -54 0
19 70 -55 0
-18 -71 0
54 -71 0
18 71 -54 0
-61 -72 0
16 -72 0
14 -72 0
-42 -72 0
61 42 72 -16 -14 0
-62 -73 0
14 -73 0
-42 -73 0
62 42 73 -14 0
74 -25 0
74 -42 0
74 -35 0
74 -63 0
25 42 35 63 -74 0
75 -25 0
75 -43 0
75 -29 0
75 -63 0
25 43 29 63 -75 0
64 76 0
36 76 0
-64 -36 -76 0
-11 -77 0
10 -77 0
44 -77 0
65 -77 0
11 77 -10 -44 -65 0
-60 -78 0
-30 -78 0
-51 -78 0
-67 -78 0
60 30 51 67 78 0
-26 -79 0
-22 -79 0
26 22 79 0
-56 -80 0
-57 -81 0
-69 -80 0
-70 -81 0
56 69 80 0
57 70 81 0
-58 -82 0
-71 -82 0
-25 -82 0
58 71 25 82 0
4 83 0
83 -25 0
83 -72 0
25 72 -4 -83 0
16 84 0
84 -25 0
84 -73 0
25 73 -16 -84 0
85 -25 0
85 -41 0
85 -50 0
85 -76 0
25 41 50 76 -85 0
6 86 0
86 -25 0
86 -78 0
25 78 -6 -86 0
-77 -87 0
-59 -87 0
-66 -87 0
-25 -87 0
77 59 66 25 87 0
-79 -88 0
-68 -88 0
-25 -88 0
79 68 25 88 0
75 90 0
83 90 0
-75 -83 -90 0
85 91 0
84 91 0
-85 -84 -91 0
74 92 0
86 92 0
-74 -86 -92 0
31 95 0
32 96 0
48 95 0
49 96 0
46 95 0
47 96 0
95 -80 0
96 -81 0
80 -31 -48 -46 -95 0
81 -32 -49 -47 -96 0
-52 -100 0
-53 -101 0
-33 -100 0
-34 -101 0
-95 -100 0
-96 -101 0
52 33 95 100 0
53 34 96 101 0
100 101 -102 0
-102 -100 -101 0
102 100 -101 0
102 101 -100 0
5 -90 0
90 -5 0
7 -92 0
92 -7 0
15 -87 0
87 -15 0
17 -91 0
91 -17 0
19 -82 0
82 -19 0
21 -100 0
100 -21 0
23 -88 0
88 -23 0
4 -103 0
-5 -103 0
27 -103 0
-28 -103 0
-54 -103 0
55 -103 0
-69 -103 0
70 -103 0
80 -103 0
-81 -103 0
95 -103 0
-96 -103 0
-100 -103 0
101 -103 0
5 28 54 69 81 96 100 103 -4 -27 -55 -70 -80 -95 -101 0
103 0
104 105 -25 0
104 25 -105 0
106 -104 -25 0
25 -104 -106 0
107 108 -26 0
107 26 -108 0
109 -107 -26 0
26 -107 -109 0
110 111 -2 0
110 2 -111 0
112 -110 -2 0
2 -110 -112 0
113 114 -3 0
113 3 -114 0
115 -113 -3 0
3 -113 -115 0
116 117 -4 0
116 4 -117 0
118 -116 -4 0
4 -116 -118 0
119 120 -6 0
119 6 -120 0
121 -119 -6 0
6 -119 -121 0
122 123 -8 0
122 8 -123 0
124 -122 -8 0
8 -122 -124 0
125 126 -9 0
125 9 -126 0
127 -125 -9 0
9 -125 -127 0
128 129 -10 0
128 10 -129 0
130 -128 -10 0
10 -128 -130 0
131 132 -11 0
131 11 -132 0
133 -131 -11 0
11 -131 -133 0
134 135 -12 0
134 12 -135 0
136 -134 -12 0
12 -134 -136 0
137 138 -13 0
137 13 -138 0
139 -137 -13 0
13 -137 -139 0
140 141 -14 0
140 14 -141 0
142 -140 -14 0
14 -140 -142 0
143 144 -16 0
143 16 -144 0
145 -143 -16 0
16 -143 -145 0
146 147 -18 0
146 18 -147 0
148 -146 -18 0
18 -146 -148 0
149 150 -20 0
149 20 -150 0
151 -149 -20 0
20 -149 -151 0
152 153 -22 0
152 22 -153 0
154 -152 -22 0
22 -152 -154 0
155 156 -24 0
155 24 -156 0
157 -155 -24 0
24 -155 -157 0
158 -104 0
158 -107 0
104 107 -158 0
104 -159 0
107 -159 0
159 -104 -107 0
160 -110 0
160 -113 0
110 113 -160 0
110 -161 0
113 -161 0
161 -110 -113 0
162 -159 0
162 -160 0
159 160 -162 0
159 -163 0
160 -163 0
163 -159 -160 0
164 -158 0
164 -161 0
158 161 -164 0
158 -165 0
161 -165 0
165 -158 -161 0
166 -162 0
166 -164 0
162 164 -166 0
162 -167 0
164 -167 0
167 -162 -164 0
168 -163 0
168 -165 0
163 165 -168 0
163 -169 0
165 -169 0
169 -163 -165 0
170 -116 0
170 -119 0
116 119 -170 0
116 -171 0
119 -171 0
171 -116 -119 0
172 -125 0
172 -128 0
125 128 -172 0
125 -173 0
128 -173 0
173 -125 -128 0
174 -122 0
174 -172 0
122 172 -174 0
122 -175 0
172 -175 0
175 -122 -172 0
176 -175 0
176 -173 0
175 173 -176 0
175 -177 0
173 -177 0
177 -175 -173 0
178 -170 0
178 -174 0
170 174 -178 0
170 -179 0
174 -179 0
179 -170 -174 0
180 -179 0
180 -177 0
179 177 -180 0
179 -181 0
177 -181 0
181 -179 -177 0
182 -171 0
182 -176 0
171 176 -182 0
171 -183 0
176 -183 0
183 -171 -176 0
184 -181 0
184 -183 0
181 183 -184 0
181 -185 0
183 -185 0
185 -181 -183 0
186 -180 0
186 -182 0
180 182 -186 0
180 -187 0
182 -187 0
187 -180 -182 0
188 -166 0
188 -178 0
166 178 -188 0
166 -189 0
178 -189 0
189 -166 -178 0
190 -189 0
190 -185 0
189 185 -190 0
189 -191 0
185 -191 0
191 -189 -185 0
192 -167 0
192 -184 0
167 184 -192 0
167 -193 0
184 -193 0
193 -167 -184 0
194 -168 0
194 -187 0
168 187 -194 0
168 -195 0
187 -195 0
195 -168 -187 0
196 -169 0
196 -186 0
169 186 -196 0
169 -197 0
186 -197 0
197 -169 -186 0
198 -191 0
198 -195 0
191 195 -198 0
191 -199 0
195 -199 0
199 -191 -195 0
200 -193 0
200 -197 0
193 197 -200 0
193 -201 0
197 -201 0
201 -193 -197 0
202 -199 0
202 -201 0
199 201 -202 0
199 -203 0
201 -203 0
203 -199 -201 0
204 -198 0
204 -200 0
198 200 -204 0
198 -205 0
200 -205 0
205 -198 -200 0
206 -190 0
206 -194 0
190 194 -206 0
190 -207 0
194 -207 0
207 -190 -194 0
208 -192 0
208 -196 0
192 196 -208 0
192 -209 0
196 -209 0
209 -192 -196 0
210 -207 0
210 -209 0
207 209 -210 0
207 -211 0
209 -211 0
211 -207 -209 0
212 -206 0
212 -208 0
206 208 -212 0
206 -213 0
208 -213 0
213 -206 -208 0
214 -131 0
214 -134 0
131 134 -214 0
131 -215 0
134 -215 0
215 -131 -134 0
216 -137 0
216 -140 0
137 140 -216 0
137 -217 0
140 -217 0
217 -137 -140 0
218 -214 0
218 -217 0
214 217 -218 0
214 -219 0
217 -219 0
219 -214 -217 0
220 -215 0
220 -216 0
215 216 -220 0
215 -221 0
216 -221 0
221 -215 -216 0
222 -219 0
222 -221 0
219 221 -222 0
219 -223 0
221 -223 0
223 -219 -221 0
224 -218 0
224 -220 0
218 220 -224 0
218 -225 0
220 -225 0
225 -218 -220 0
226 -143 0
226 -146 0
143 146 -226 0
143 -227 0
146 -227 0
227 -143 -146 0
228 -152 0
228 -155 0
152 155 -228 0
152 -229 0
155 -229 0
229 -152 -155 0
230 -149 0
230 -229 0
149 229 -230 0
149 -231 0
229 -231 0
231 -149 -229 0
232 -230 0
232 -228 0
230 228 -232 0
230 -233 0
228 -233 0
233 -230 -228 0
234 -227 0
234 -231 0
227 231 -234 0
227 -235 0
231 -235 0
235 -227 -231 0
236 -234 0
236 -232 0
234 232 -236 0
234 -237 0
232 -237 0
237 -234 -232 0
238 -226 0
238 -233 0
226 233 -238 0
226 -239 0
233 -239 0
239 -226 -233 0
240 -236 0
240 -238 0
236 238 -240 0
236 -241 0
238 -241 0
241 -236 -238 0
242 -237 0
242 -239 0
237 239 -242 0
237 -243 0
239 -243 0
243 -237 -239 0
244 -223 0
244 -235 0
223 235 -244 0
223 -245 0
235 -245 0
245 -223 -235 0
246 -244 0
246 -240 0
244 240 -246 0
244 -247 0
240 -247 0
247 -244 -240 0
248 -222 0
248 -241 0
222 241 -248 0
222 -249 0
241 -249 0
249 -222 -241 0
250 -225 0
250 -242 0
225 242 -250 0
225 -251 0
242 -251 0
251 -225 -242 0
252 -224 0
252 -243 0
224 243 -252 0
224 -253 0
243 -253 0
253 -224 -243 0
254 -246 0
254 -250 0
246 250 -254 0
246 -255 0
250 -255 0
255 -246 -250 0
256 -248 0
256 -252 0
248 252 -256 0
248 -257 0
252 -257 0
257 -248 -252 0
258 -254 0
258 -256 0
254 256 -258 0
254 -259 0
256 -259 0
259 -254 -256 0
260 -255 0
260 -257 0
255 257 -260 0
255 -261 0
257 -261 0
261 -255 -257 0
262 -247 0
262 -251 0
247 251 -262 0
247 -263 0
251 -263 0
263 -247 -251 0
264 -249 0
264 -253 0
249 253 -264 0
249 -265 0
253 -265 0
265 -249 -253 0
266 -262 0
266 -264 0
262 264 -266 0
262 -267 0
264 -267 0
267 -262 -264 0
268 -263 0
268 -265 0
263 265 -268 0
263 -269 0
265 -269 0
269 -263 -265 0
270 -203 0
270 -269 0
203 269 -270 0
203 -271 0
269 -271 0
271 -203 -269 0
272 -202 0
272 -245 0
202 245 -272 0
202 -273 0
245 -273 0
273 -202 -245 0
274 -270 0
274 -188 0
270 188 -274 0
270 -275 0
188 -275 0
275 -270 -188 0
276 -272 0
276 -258 0
272 258 -276 0
272 -277 0
258 -277 0
277 -272 -258 0
278 -205 0
278 -259 0
205 259 -278 0
205 -279 0
259 -279 0
279 -205 -259 0
280 -204 0
280 -260 0
204 260 -280 0
204 -281 0
260 -281 0
281 -204 -260 0
282 -211 0
282 -261 0
211 261 -282 0
211 -283 0
261 -283 0
283 -211 -261 0
284 -210 0
284 -266 0
210 266 -284 0
210 -285 0
266 -285 0
285 -210 -266 0
286 -213 0
286 -267 0
213 267 -286 0
213 -287 0
267 -287 0
287 -213 -267 0
288 -212 0
288 -268 0
212 268 -288 0
212 -289 0
268 -289 0
289 -212 -268 0
290 -274 0
290 -282 0
274 282 -290 0
274 -291 0
282 -291 0
291 -274 -282 0
292 -276 0
292 -284 0
276 284 -292 0
276 -293 0
284 -293 0
293 -276 -284 0
294 -278 0
294 -286 0
278 286 -294 0
278 -295 0
286 -295 0
295 -278 -286 0
296 -280 0
296 -288 0
280 288 -296 0
280 -297 0
288 -297 0
297 -280 -288 0
298 -290 0
298 -294 0
290 294 -298 0
290 -299 0
294 -299 0
299 -290 -294 0
300 -292 0
300 -296 0
292 296 -300 0
292 -301 0
296 -301 0
301 -292 -296 0
302 -298 0
302 -300 0
298 300 -302 0
298 -303 0
300 -303 0
303 -298 -300 0
304 -299 0
304 -301 0
299 301 -304 0
299 -305 0
301 -305 0
305 -299 -301 0
306 -291 0
306 -295 0
291 295 -306 0
291 -307 0
295 -307 0
307 -291 -295 0
308 -293 0
308 -297 0
293 297 -308 0
293 -309 0
297 -309 0
309 -293 -297 0
310 -306 0
310 -308 0
306 308 -310 0
306 -311 0
308 -311 0
311 -306 -308 0
312 -307 0
312 -309 0
307 309 -312 0
307 -313 0
309 -313 0
313 -307 -309 0
314 -275 0
314 -283 0
275 283 -314 0
275 -315 0
283 -315 0
315 -275 -283 0
316 -277 0
316 -285 0
277 285 -316 0
277 -317 0
285 -317 0
317 -277 -285 0
318 -279 0
318 -287 0
279 287 -318 0
279 -319 0
287 -319 0
319 -279 -287 0
320 -281 0
320 -289 0
281 289 -320 0
281 -321 0
289 -321 0
321 -281 -289 0
322 -314 0
322 -318 0
314 318 -322 0
314 -323 0
318 -323 0
323 -314 -318 0
324 -316 0
324 -320 0
316 320 -324 0
316 -325 0
320 -325 0
325 -316 -320 0
326 -322 0
326 -324 0
322 324 -326 0
322 -327 0
324 -327 0
327 -322 -324 0
328 -323 0
328 -325 0
323 325 -328 0
323 -329 0
325 -329 0
329 -323 -325 0
330 -315 0
330 -319 0
315 319 -330 0
315 -331 0
319 -331 0
331 -315 -319 0
332 -317 0
332 -321 0
317 321 -332 0
317 -333 0
321 -333 0
333 -317 -321 0
334 -330 0
334 -332 0
330 332 -334 0
330 -335 0
332 -335 0
335 -330 -332 0
336 -331 0
336 -333 0
331 333 -336 0
331 -337 0
333 -337 0
337 -331 -333 0
338 -271 0
338 -273 0
271 273 -338 0
271 -339 0
273 -339 0
339 -271 -273 0
302 -303 0
303 -304 0
304 -305 0
305 -310 0
310 -311 0
311 -312 0
312 -313 0
313 -326 0
326 -327 0
327 -328 0
328 -329 0
329 -334 0
334 -335 0
335 -336 0
336 -337 0
337 -338 0
338 -339 0
304 0
